p cnf 29 69
a 19 0
e 1 2 3 4 5 6 7 8 9 10 11 12 13 14 15 16 17 18 20 21 22 23 24 25 26 27 28 29 0
-2 -1 0
-2 -1 0
1 2 0
5 -3 0
5 -4 0
3 4 -5 0
6 -2 0
6 -5 0
2 5 -6 0
9 -7 0
9 8 0
7 -8 -9 0
3 10 -11 0
-3 -10 -11 0
3 -10 11 0
-3 10 11 0
-7 -12 -13 0
7 12 -13 0
-7 12 13 0
7 -12 13 0
-14 -13 0
-14 -4 0
13 4 14 0
15 5 0
15 14 0
-5 -14 -15 0
-2 -13 -16 0
2 13 -16 0
-2 13 16 0
2 -13 16 0
-17 15 0
-17 -16 0
-15 16 17 0
-18 11 0
-18 -17 0
-11 17 18 0
-19 9 0
-19 18 0
-9 -18 19 0
20 6 0
20 -19 0
-6 19 -20 0
23 21 0
23 22 0
-21 -22 -23 0
4 23 -24 0
-4 -23 -24 0
4 -23 24 0
-4 23 24 0
25 24 0
25 -22 0
-24 22 -25 0
-27 -26 0
-27 -10 0
26 10 27 0
28 25 0
28 27 0
-25 -27 -28 0
20 28 -29 0
-20 -28 -29 0
20 -28 29 0
-20 28 29 0
26 29 -2 -1 -17 23 0
17 9 23 -5 -25 0
-18 23 28 22 -6 -19 -16 0
26 5 28 12 -6 -15 11 0
1 11 -27 -6 23 0
-16 -29 -20 -8 15 12 0
29 0
